
Starting CP-SAT solver v9.15.6755
Parameters: random_seed: 2026072842 max_time_in_seconds: 2500 log_search_progress: true cp_model_presolve: true linearization_level: 2 num_search_workers: 4 cp_model_probing_level: 2 symmetry_level: 2

Initial satisfaction model '': (model_fingerprint: 0xb1bdc9fd5d8daf30)
#Variables: 724 (608 primary variables)
  - 724 Booleans in [0,1]
#kBoolAnd: 110 (#enforced: 110) (#literals: 330)
#kBoolOr: 110 (#enforced: 110) (#literals: 220)
#kExactlyOne: 87 (#literals: 261)
#kLinear1: 32 (#enforced: 6)
#kLinear2: 336 (#enforced: 336) (#complex_domain: 110)
#kLinear3: 1'600 (#enforced: 6)
#kLinearN: 1'132 (#enforced: 243) (#terms: 9'111)

Starting presolve at 0.00s
  6.55e-04s  0.00e+00d  [DetectDominanceRelations] 
  8.75e-03s  0.00e+00d  [PresolveToFixPoint] #num_loops=3 #num_dual_strengthening=1 
  3.46e-05s  0.00e+00d  [ExtractEncodingFromLinear] #potential_supersets=87 
  2.91e-04s  0.00e+00d  [DetectDuplicateColumns] 
  9.99e-05s  0.00e+00d  [DetectDuplicateConstraints] #duplicates=5 
[Symmetry] Graph for symmetry has 4'872 nodes and 15'736 arcs.
[Symmetry] Symmetry computation done. time: 0.00128405 dtime: 0.0018124
[SAT presolve] num removable Booleans: 220 / 628
[SAT presolve] num trivial clauses: 0
[SAT presolve] [0s] clauses:2'742 literals:7'450 vars:507 one_side_vars:67 simple_definition:1 singleton_clauses:0
[SAT presolve] [0.000226323s] clauses:2'741 literals:7'443 vars:507 one_side_vars:67 simple_definition:1 singleton_clauses:0
[SAT presolve] [0.000702062s] clauses:2'262 literals:6'662 vars:379 one_side_vars:74 simple_definition:65 singleton_clauses:0
  1.14e-04s  0.00e+00d  [DetectDuplicateConstraintsWithDifferentEnforcements] #without_enforcements=1 
  5.65e-03s  2.39e-03d  [Probe] #probed=1'306 #fixed_bools=12 #equiv=8 #new_binary_clauses=1'288 
  5.02e-04s  3.25e-04d  [MaxClique] Merged 597 constraints with 1'332 literals into 518 constraints with 1'201 literals
  8.83e-04s  0.00e+00d  [DetectDominanceRelations] 
  3.16e-03s  0.00e+00d  [PresolveToFixPoint] #num_loops=1 #num_dual_strengthening=1 
  1.26e-03s  0.00e+00d  [ProcessAtMostOneAndLinear] #num_changes=1 
  1.01e-04s  0.00e+00d  [DetectDuplicateConstraints] #duplicates=6 
  8.76e-05s  0.00e+00d  [DetectDuplicateConstraintsWithDifferentEnforcements] 
  2.97e-03s  9.29e-05d  [DetectDominatedLinearConstraints] #relevant_constraints=828 #num_inclusions=470 #num_redundant=7 
  1.23e-04s  0.00e+00d  [DetectDifferentVariables] 
  7.40e-04s  8.18e-05d  [ProcessSetPPC] #relevant_constraints=3'003 #num_inclusions=77 
  2.66e-04s  3.38e-05d  [TransformClausesToExactlyOne] #num_amos=520 #num_clauses=1'672 #num_checked=1'672 
  4.99e-05s  0.00e+00d  [DetectEncodedComplexDomains] 
  3.12e-05s  1.00e-07d  [FindAlmostIdenticalLinearConstraints] #num_tested_pairs=1 
  9.08e-04s  1.41e-03d  [FindBigAtMostOneAndLinearOverlap] 
  1.22e-03s  1.02e-03d  [FindBigVerticalLinearOverlap] #blocks=5 #saved_nz=185 
  3.47e-04s  5.80e-04d  [FindBigHorizontalLinearOverlap] #linears=461 
  3.12e-04s  2.72e-05d  [MergeClauses] #num_collisions=26 #num_merges=26 #num_saved_literals=130 
  8.36e-04s  0.00e+00d  [DetectDominanceRelations] 
  3.11e-03s  0.00e+00d  [PresolveToFixPoint] #num_loops=2 #num_dual_strengthening=1 
  8.27e-04s  0.00e+00d  [DetectDominanceRelations] 
  2.98e-03s  0.00e+00d  [PresolveToFixPoint] #num_loops=1 #num_dual_strengthening=1 
  1.80e-04s  0.00e+00d  [DetectDuplicateColumns] 
  8.89e-05s  0.00e+00d  [DetectDuplicateConstraints] 
[Symmetry] Graph for symmetry has 4'355 nodes and 13'642 arcs.
[Symmetry] Symmetry computation done. time: 0.000939104 dtime: 0.00132867
[SAT presolve] num removable Booleans: 91 / 485
[SAT presolve] num trivial clauses: 0
[SAT presolve] [0s] clauses:2'167 literals:6'441 vars:458 one_side_vars:151 simple_definition:84 singleton_clauses:0
[SAT presolve] [0.000210033s] clauses:2'165 literals:6'248 vars:458 one_side_vars:195 simple_definition:72 singleton_clauses:0
[SAT presolve] [0.000289561s] clauses:2'155 literals:6'239 vars:453 one_side_vars:198 simple_definition:57 singleton_clauses:0
  1.55e-04s  0.00e+00d  [DetectDuplicateConstraintsWithDifferentEnforcements] #without_enforcements=1 
  6.06e-03s  2.12e-03d  [Probe] #probed=1'306 #new_binary_clauses=829 
  4.46e-04s  3.79e-04d  [MaxClique] Merged 524 constraints with 1'150 literals into 510 constraints with 1'141 literals
  8.28e-04s  0.00e+00d  [DetectDominanceRelations] 
  3.02e-03s  0.00e+00d  [PresolveToFixPoint] #num_loops=1 #num_dual_strengthening=1 
  1.15e-03s  0.00e+00d  [ProcessAtMostOneAndLinear] #num_changes=1 
  1.01e-04s  0.00e+00d  [DetectDuplicateConstraints] 
  9.67e-05s  0.00e+00d  [DetectDuplicateConstraintsWithDifferentEnforcements] 
  1.48e-03s  6.45e-05d  [DetectDominatedLinearConstraints] #relevant_constraints=820 #num_inclusions=358 
  1.24e-04s  0.00e+00d  [DetectDifferentVariables] 
  7.35e-04s  7.18e-05d  [ProcessSetPPC] #relevant_constraints=3'049 #num_inclusions=83 
  2.81e-04s  3.34e-05d  [TransformClausesToExactlyOne] #num_amos=510 #num_clauses=1'676 #num_checked=1'676 
  1.64e-04s  0.00e+00d  [DetectEncodedComplexDomains] 
  3.87e-05s  9.00e-08d  [FindAlmostIdenticalLinearConstraints] #num_tested_pairs=1 
  8.24e-04s  1.15e-03d  [FindBigAtMostOneAndLinearOverlap] 
  1.06e-03s  9.05e-04d  [FindBigVerticalLinearOverlap] #blocks=2 #saved_nz=74 
  3.16e-04s  5.16e-04d  [FindBigHorizontalLinearOverlap] #linears=457 
  3.19e-04s  2.63e-05d  [MergeClauses] #num_collisions=75 #num_merges=75 #num_saved_literals=221 
  8.37e-04s  0.00e+00d  [DetectDominanceRelations] 
  3.07e-03s  0.00e+00d  [PresolveToFixPoint] #num_loops=2 #num_dual_strengthening=1 
  8.22e-04s  0.00e+00d  [DetectDominanceRelations] 
  2.99e-03s  0.00e+00d  [PresolveToFixPoint] #num_loops=1 #num_dual_strengthening=1 
  1.48e-04s  0.00e+00d  [DetectDuplicateColumns] 
  9.63e-05s  0.00e+00d  [DetectDuplicateConstraints] 
[Symmetry] Graph for symmetry has 4'293 nodes and 13'226 arcs.
[Symmetry] Symmetry computation done. time: 0.00093686 dtime: 0.00131344
[SAT presolve] num removable Booleans: 86 / 480
[SAT presolve] num trivial clauses: 0
[SAT presolve] [0s] clauses:2'138 literals:6'195 vars:453 one_side_vars:200 simple_definition:57 singleton_clauses:0
[SAT presolve] [0.000197249s] clauses:2'138 literals:6'195 vars:453 one_side_vars:200 simple_definition:57 singleton_clauses:0
[SAT presolve] [0.000258503s] clauses:2'138 literals:6'195 vars:453 one_side_vars:200 simple_definition:57 singleton_clauses:0
  1.55e-04s  0.00e+00d  [DetectDuplicateConstraintsWithDifferentEnforcements] 
  5.89e-03s  2.07e-03d  [Probe] #probed=1'306 #new_binary_clauses=828 
  4.48e-04s  3.72e-04d  [MaxClique] Merged 509 constraints with 1'127 literals into 508 constraints with 1'126 literals
  8.62e-04s  0.00e+00d  [DetectDominanceRelations] 
  3.06e-03s  0.00e+00d  [PresolveToFixPoint] #num_loops=1 #num_dual_strengthening=1 
  1.12e-03s  0.00e+00d  [ProcessAtMostOneAndLinear] 
  1.11e-04s  0.00e+00d  [DetectDuplicateConstraints] 
  1.12e-04s  0.00e+00d  [DetectDuplicateConstraintsWithDifferentEnforcements] 
  6.25e-04s  5.18e-05d  [DetectDominatedLinearConstraints] #relevant_constraints=822 #num_inclusions=284 
  1.31e-04s  0.00e+00d  [DetectDifferentVariables] 
  7.12e-04s  7.07e-05d  [ProcessSetPPC] #relevant_constraints=3'045 #num_inclusions=79 
  2.99e-04s  3.34e-05d  [TransformClausesToExactlyOne] #num_amos=508 #num_clauses=1'678 #num_checked=1'678 
  1.51e-04s  0.00e+00d  [DetectEncodedComplexDomains] 
  4.55e-05s  0.00e+00d  [FindAlmostIdenticalLinearConstraints] 
  8.32e-04s  1.07e-03d  [FindBigAtMostOneAndLinearOverlap] 
  1.01e-03s  8.47e-04d  [FindBigVerticalLinearOverlap] 
  3.23e-04s  5.16e-04d  [FindBigHorizontalLinearOverlap] #linears=457 
  3.43e-04s  2.64e-05d  [MergeClauses] #num_collisions=76 #num_merges=76 #num_saved_literals=223 
  8.65e-04s  0.00e+00d  [DetectDominanceRelations] 
  3.05e-03s  0.00e+00d  [PresolveToFixPoint] #num_loops=1 #num_dual_strengthening=1 
  3.00e-05s  0.00e+00d  [MergeNoOverlap] 
  3.07e-05s  0.00e+00d  [MergeNoOverlap2D] 

Presolve summary:
  - 37 affine relations were detected.
  - rule 'TODO dual: only one blocking constraint?' was applied 883 times.
  - rule 'TODO dual: tighten at most one' was applied 8 times.
  - rule 'TODO linear inclusion: superset is equality' was applied 197 times.
  - rule 'affine: new relation' was applied 37 times.
  - rule 'at_most_one: removed literals' was applied 61 times.
  - rule 'at_most_one: size one' was applied 60 times.
  - rule 'at_most_one: transformed into max clique' was applied 3 times.
  - rule 'bool_or: implications' was applied 70 times.
  - rule 'bool_or: only one literal' was applied 12 times.
  - rule 'bool_or: removed enforcement literal' was applied 573 times.
  - rule 'deductions: 869 stored' was applied 1 time.
  - rule 'duplicate: merged rhs of linear constraint' was applied 10 times.
  - rule 'duplicate: removed constraint' was applied 11 times.
  - rule 'duplicate: removed enforced constraint' was applied 2 times.
  - rule 'enforcement: false literal' was applied 33 times.
  - rule 'enforcement: true literal' was applied 8 times.
  - rule 'exactly_one: removed literals' was applied 32 times.
  - rule 'exactly_one: satisfied' was applied 3 times.
  - rule 'exactly_one: singleton' was applied 3 times.
  - rule 'exactly_one: size two' was applied 29 times.
  - rule 'exactly_one: x and not(x)' was applied 6 times.
  - rule 'incompatible linear: add implication' was applied 129 times.
  - rule 'linear + amo: empty after processing' was applied 6 times.
  - rule 'linear + amo: extracted enforcement literal' was applied 97 times.
  - rule 'linear + amo: fixed literal implied by enforcement' was applied 2 times.
  - rule 'linear inclusion: redundant containing constraint' was applied 3 times.
  - rule 'linear inclusion: redundant included constraint' was applied 3 times.
  - rule 'linear inclusion: sparsify superset' was applied 1 time.
  - rule 'linear matrix: common vertical rectangle' was applied 7 times.
  - rule 'linear1: x in domain' was applied 26 times.
  - rule 'linear2: convert ax + by != cte to clauses' was applied 258 times.
  - rule 'linear2: convert implied ax + by == cte to clauses' was applied 118 times.
  - rule 'linear2: implied ax + by = cte has only one solution' was applied 9 times.
  - rule 'linear: always true' was applied 418 times.
  - rule 'linear: coefficient strengthening by increasing it' was applied 2 times.
  - rule 'linear: empty' was applied 1 time.
  - rule 'linear: extracted at most one (max)' was applied 1 time.
  - rule 'linear: fixed or dup variables' was applied 879 times.
  - rule 'linear: negative clause' was applied 1'299 times.
  - rule 'linear: negative reified and' was applied 78 times.
  - rule 'linear: never in domain' was applied 6 times.
  - rule 'linear: positive at most one' was applied 34 times.
  - rule 'linear: reduced variable domains' was applied 8 times.
  - rule 'linear: remapped using affine relations' was applied 22 times.
  - rule 'new_bool: integer encoding' was applied 6 times.
  - rule 'presolve: 77 unused variables removed.' was applied 1 time.
  - rule 'presolve: iteration' was applied 3 times.
  - rule 'probing: bool_or reduced to implication' was applied 32 times.
  - rule 'probing: simplified clauses' was applied 16 times.
  - rule 'setppc: bool_or in at_most_one' was applied 7 times.
  - rule 'setppc: removed dominated constraints' was applied 88 times.
  - rule 'variables: add encoding constraint' was applied 6 times.

Presolved satisfaction model '': (model_fingerprint: 0x87dada4c9da5c9b3)
#Variables: 487 (419 primary variables)
  - 480 Booleans in [0,1]
  - 7 in [0,2]
#kAtMostOne: 50 (#literals: 210)
#kBoolAnd: 272 (#enforced: 272) (#literals: 730)
#kBoolAndClauses: 76 (#enforced: 76 #multi: 76) (#literals: 375)
#kBoolOr: 1'526 (#literals: 4'677)
#kExactlyOne: 52 (#literals: 200)
#kLinear1: 12 (#enforced: 12)
#kLinear3: 15 (#enforced: 10)
#kLinearN: 807 (#enforced: 119 #multi: 1) (#terms: 5'591)
[Symmetry] Graph for symmetry has 4'041 nodes and 13'221 arcs.
[Symmetry] Symmetry computation done. time: 0.000800114 dtime: 0.00129472

Preloading model.
#Model   0.10s var:487/487 constraints:2810/2810

Starting search at 0.10s with 4 workers.
3 full problem subsolvers: [default_lp, max_lp, no_lp]
1 first solution subsolver: [fj]
2 interleaved subsolvers: [feasibility_pump, rins/rens]
2 helper subsolvers: [neighborhood_helper, synchronization_agent]

#Model   0.24s var:486/487 constraints:2806/2810
#Model  18.12s var:485/487 constraints:2804/2810
#Model 117.92s var:484/487 constraints:2802/2810
#Model 180.71s var:483/487 constraints:2788/2810

Task timing                   n [     min,      max]      avg      dev     time         n [     min,      max]      avg      dev    dtime
        'default_lp':         1 [  41.67m,   41.67m]   41.67m   0.00ns   41.67m         2 [  2.11ms,   40.35m]   20.17m   20.17m   40.35m
  'feasibility_pump':     12393 [ 33.72us, 124.03ms]   1.60ms   1.14ms   19.83s     12391 [286.68us, 107.63ms] 297.83us 964.22us    3.69s
                'fj':      8717 [113.45ms, 252.80ms] 142.17ms  10.63ms   20.66m      8717 [100.00ms, 100.12ms] 100.02ms  13.27us   14.53m
            'max_lp':         1 [  41.67m,   41.67m]   41.67m   0.00ns   41.67m         2 [ 70.56ms,   52.99m]   26.50m   26.50m   52.99m
             'no_lp':         1 [  41.67m,   41.67m]   41.67m   0.00ns   41.67m         2 [  1.91ms,    1.46h]   43.93m   43.93m    1.46h
         'rins/rens':     11191 [  7.61ms, 257.43ms] 110.75ms  42.81ms   20.66m     11190 [205.59us, 100.39ms]  67.27ms  38.00ms   12.55m

Search stats     Bools   Conflicts    Branches  Restarts  BacktrackToRoot   Backtrack     BoolPropag  IntegerPropag
  'default_lp':    480     241'887   7'346'949     1'386        1'199'789   1'733'066     84'900'245    100'038'437
      'max_lp':    480     125'569   9'213'352       727        1'500'193   1'968'580    103'367'406    128'147'492
       'no_lp':    480  22'889'075  31'042'873    82'357          616'476  23'396'572  1'837'077'394    515'749'945

SAT formula      Fixed  Equiv  Total  VarLeft  BinaryClauses  PermanentClauses  TemporaryClauses
  'default_lp':      4      3    480      473          2'692            52'485             9'900
      'max_lp':      4      3    480      473          2'692            51'808            12'802
       'no_lp':      4      3    480      473          2'692           144'317             7'288

SAT stats        ClassicMinim   LitRemoved  LitRemovedBinary   LitLearned  LitForgotten   Subsumed
  'default_lp':       212'348    2'831'260         2'318'239    7'676'378     5'173'433     81'722
      'max_lp':       107'833    1'441'907           994'213    3'408'481     2'073'556     35'840
       'no_lp':    20'661'140  349'870'936       195'399'740  549'384'099   442'372'527  5'961'925

Vivification       Clauses  Decisions  LitTrue  Subsumed  LitRemoved  DecisionReused  Conflicts
  'default_lp':  1'235'432  6'776'074        2    13'059     134'228         318'459      1'134
      'max_lp':  1'510'021  8'712'012        0    14'309     147'671         354'432      1'110
       'no_lp':    456'649  3'733'258        0    28'683     360'422         113'656      1'247

Clause deletion    at_true  l_and_not(l)  to_binary  sub_conflict  sub_extra  sub_decisions  sub_eager  sub_vivify  sub_probing  sub_inpro  blocked  eliminated   forgotten    promoted   conflicts
    'default_lp':      269             1          4        80'390        589          2'082      1'332      13'059          325      9'266        0           0     136'554     481'723     241'887
        'max_lp':      230             2          3        35'444        343            648        396      14'309          352      5'809        0           0      67'758     258'112     125'569
         'no_lp':      652             0          4     5'854'071     37'725        234'721    107'854      28'683          593    106'798        0           0  16'373'432  52'169'853  22'889'075

Lp stats         Component  Iterations  AddedCuts  OPTIMAL  DUAL_F.  DUAL_U.
  'default_lp':          1  29'921'657     88'221  350'535        0  191'743
      'max_lp':          1  14'166'615     92'045   46'897  106'896   36'961

Lp dimension        Final dimension of first component
  'default_lp':   419 rows, 350 columns, 13677 entries
      'max_lp':  1373 rows, 487 columns, 22506 entries

Lp debug         CutPropag  CutEqPropag   Adjust  Overflow        Bad  BadScaling
  'default_lp':          0           28  191'733         0  2'767'757           0
      'max_lp':          0          281   36'954         0  2'730'124           0

Lp pool          Constraints  Updates  Simplif  Merged  Shortened  Split  Strengthened       Cuts/Call
  'default_lp':        9'994   17'864        0       0        110      0             0  88'221/156'935
      'max_lp':       12'196   27'933        0       3        118      0         2'167  92'045/186'832

Lp Cut            default_lp  max_lp
          CG_FF:       1'016     101
           CG_K:         544       9
          CG_KL:         508       1
           CG_R:       1'072      57
          CG_RB:          44       3
         CG_RBP:           9       1
         Clique:           -     191
             IB:         138      12
       MIR_1_FF:         583     953
        MIR_1_K:         116      15
       MIR_1_KL:         428      37
        MIR_1_R:         554     455
       MIR_1_RB:           5       8
      MIR_1_RBP:           9       -
      MIR_1_RLT:           -   9'393
       MIR_2_FF:         890     988
        MIR_2_K:         174     196
       MIR_2_KL:         447      90
        MIR_2_R:       1'069     974
       MIR_2_RB:          22      86
      MIR_2_RBP:          47       2
       MIR_3_FF:         369     256
        MIR_3_K:          61      33
       MIR_3_KL:         102      16
        MIR_3_R:         467     350
       MIR_3_RB:          22      78
      MIR_3_RBP:          30      10
       MIR_4_FF:         125      57
        MIR_4_K:          26      12
       MIR_4_KL:          43       5
        MIR_4_R:         336     290
       MIR_4_RB:          15      50
      MIR_4_RBP:          14      10
       MIR_5_FF:          46      15
        MIR_5_K:          13       4
       MIR_5_KL:           6       -
        MIR_5_R:         224     235
       MIR_5_RB:          14      56
      MIR_5_RBP:           7       7
       MIR_6_FF:          36      14
        MIR_6_K:          16       3
       MIR_6_KL:           3       -
        MIR_6_R:         174     215
       MIR_6_RB:           6      34
      MIR_6_RBP:           7       3
   ZERO_HALF_FF:         451     543
    ZERO_HALF_K:          93      35
   ZERO_HALF_KL:         102       2
    ZERO_HALF_R:      77'636  76'120
   ZERO_HALF_RB:          75       1
  ZERO_HALF_RBP:          27      19

LNS stats       Improv/Calls  Closed  Difficulty  TimeLimit
  'rins/rens':   11191/11191     50%    7.74e-01       0.10

LS stats                                    Batches  Restarts/Perturbs    LinMoves    GenMoves  CompoundMoves  Bactracks  WeightUpdates  ScoreComputed
                             'fj_restart':      473                139  13'790'239           0              0          0     12'365'962     23'229'585
                    'fj_restart_compound':      323                117           0   3'740'715        257'078  1'741'599          7'745     60'842'613
                'fj_restart_compound_obj':      617                126           0   7'409'943        348'713  3'530'356         18'089    116'649'234
            'fj_restart_compound_perturb':    1'058                125           0  12'499'667        380'440  6'059'368         38'637    199'959'480
        'fj_restart_compound_perturb_obj':      620                124           0   7'382'328        328'589  3'526'666         19'448    117'387'056
                       'fj_restart_decay':      934                120  32'546'903           0              0          0      1'386'760     18'296'621
              'fj_restart_decay_compound':      542                120           0   7'052'589      1'124'992  2'963'493          7'388    103'749'225
          'fj_restart_decay_compound_obj':      324                116           0   4'017'106        646'475  1'685'047          4'481     61'722'997
      'fj_restart_decay_compound_perturb':      414                116           0   5'258'466        844'052  2'206'905          5'658     79'071'696
  'fj_restart_decay_compound_perturb_obj':      500                112           0   6'556'686      1'049'235  2'753'445          6'843     95'696'414
                   'fj_restart_decay_obj':      375                117  13'046'634           0              0          0        556'439      7'325'587
               'fj_restart_decay_perturb':      356                117  12'377'040           0              0          0        528'278      6'971'345
           'fj_restart_decay_perturb_obj':      750                120  26'118'605           0              0          0      1'112'311     14'675'463
                         'fj_restart_obj':      386                121  11'882'344           0              0          0     10'003'300     18'253'755
                     'fj_restart_perturb':      463                113  13'505'121           0              0          0     11'938'719     22'573'644
                 'fj_restart_perturb_obj':      582                112  17'449'460           0              0          0     15'463'442     30'127'476

Solution repositories    Added  Queried  Synchro
    'alternative_path':      0        0        0
      'best_solutions':      0        0        0
   'fj solution hints':  1'907        0    1'907
        'lp solutions':  1'471   11'191    1'467
                'pump':      0        0

Improving bounds shared    Num  Sym
            'default_lp':    5    0

Clauses shared    #Exported  #Imported  #BinaryRead  #BinaryTotal
   'default_lp':      3'207     62'705          338           338
       'max_lp':      3'137     62'662          338           338
        'no_lp':     61'453      6'646          338           338

LRAT_status: NA
CpSolverResponse summary:
status: UNKNOWN
objective: NA
best_bound: NA
integers: 361
booleans: 480
conflicts: 241887
branches: 7346949
propagations: 84900245
integer_propagations: 100038437
restarts: 1386
lp_iterations: 29921657
walltime: 2500.1
usertime: 2500.1
deterministic_time: 12500.2
gap_integral: 0

{
  "board_size": 22,
  "parity_proved": 0,
  "target": 34,
  "child_id": 742,
  "child_count": 2640,
  "partition": "unknown_pair_x_diag_plus_twos_x_diag_minus_twos",
  "build_seconds": 0.07644033432006836,
  "workers": 4,
  "requested_seed": 2026072842,
  "effective_seed": 2026072842,
  "main_diagonal_pair": [
    2,
    6
  ],
  "pair_index": 43,
  "diag_plus_twos": 16,
  "diag_minus_twos": 16,
  "pair_excess": 3,
  "residual_certificate_slack": 109,
  "analytic_minimum_line_defect": 24,
  "analytic_defect_details": {
    "row_costs": {
      "12": 6,
      "13": 3,
      "14": 0,
      "15": 0,
      "16": 0,
      "17": 0
    },
    "column_costs": {
      "12": 6,
      "13": 3,
      "14": 0,
      "15": 0,
      "16": 0,
      "17": 0
    },
    "plus_cost": 24,
    "minus_cost": 0,
    "row_column_minimum": 0
  },
  "maximal_line_constraints": 2455,
  "analytic_infeasible": false,
  "allowed_points": 242,
  "status": "UNKNOWN",
  "proof_method": "cp_sat_all_lines_with_certificate_profile_cuts",
  "elapsed_seconds": 2500.0983579158783,
  "branches": 7346949,
  "conflicts": 241887
}
